NAME : pr20.tsp
COMMENT : 20-city problem
TYPE : TSP 
DIMENSION : 20
EDGE_WEIGHT_TYPE : EUC_2D
NODE_COORD_SECTION 
1  3.216200e+04 6.054000e+03 
2  6.858500e+04 3.479500e+04 
3  9.360000e+04 1.927600e+04 
4  5.173000e+04 3.166300e+04 
5  3.572200e+04 8.934200e+04 
6  9.098400e+04 3.954900e+04 
7  3.224700e+04 8.963300e+04 
8  7.301800e+04 8.774300e+04 
9  5.782800e+04 5.803700e+04 
10 5.758000e+03 4.501700e+04 
11 8.010400e+04 7.196300e+04 
12 5.932000e+03 6.244300e+04 
13 1.923800e+04 7.914900e+04 
14 5.894300e+04 6.466100e+04 
15 7.594900e+04 6.347500e+04 
16 4.415200e+04 5.215400e+04 
17 5.069800e+04 5.930700e+04 
18 1.285600e+04 5.075400e+04 
19 3.161600e+04 9.240200e+04 
20 4.997800e+04 5.745800e+04 
EOF 
